         5         3      0.25     365.0
         3         2         4         3         1
         4         3         5
         3         1         2         5
       0.5       0.6      0.85       0.5
         4         1         3
       1.1       0.8      0.75
         2         5         1         4         3
       1.2      0.25       0.7       0.9       1.0
       0.3       0.8       1.0

